NAME:7_HardATSPLIB_7
TYPE: ATSP
DIMENSION: 7
EDGE_WEIGHT_TYPE: EXPLICIT
EDGE_WEIGHT_FORMAT: FULL_MATRIX
EDGE_WEIGHT_SECTION
0	7	1	5	1	0	4
3	0	2	3	4	3	7
9	6	0	4	8	2	8
5	7	1	0	6	0	8
1	6	0	4	0	0	3
7	7	1	5	6	0	9
1	3	2	6	2	1	0
